r = [
0,320,54,339,320,143,76,52,134,353,231,79,290,22,305,277,261,16,124,346,62,343,225,202,38,10,0
];
p = [
0,21,14,24,3,30,19,23,27,4,12,28,9,13,2,2,21,20,25,21,29,28,4,1,18,27,0
];
e = [
0,10,2,9,5,18,19,4,19,16,7,18,14,17,1,4,20,20,5,9,3,18,4,18,11,5,0
];
d = [
0,380,229,500,323,265,250,75,192,500,298,107,499,35,403,279,282,59,149,367,91,494,229,203,107,37,522
];
d_bar = [
0,399,242,522,326,292,267,96,216,504,309,132,507,47,405,281,301,77,172,386,117,519,233,204,123,61,522
];
w = [
0,0.526315789,0.153846154,0.409090909,1.666666667,0.666666667,1.117647059,0.19047619,0.791666667,4,0.636363636,0.72,1.75,1.416666667,0.5,2,1.052631579,1.111111111,0.217391304,0.473684211,0.115384615,0.72,1,18,0.6875,0.208333333,0
];
